32	0

0	1	2
4	2	3	6
1	1	4
4	1	5
8	2	7	8
7	2	7	8
6	2	9	10
9	2	11	12
10	2	13	14
2	2	11	12
8	2	13	14
1	2	13	14
6	2	15	16
8	2	15	16
5	1	18
2	1	17
3	1	18
7	1	19
10	2	20	21
2	2	22	23
9	2	22	23
2	2	24	25
2	2	24	25
2	1	26
7	1	27
1	1	27
4	2	28	29
10	1	30
2	1	30
3	1	31
1	1	32
0	0
